Route #1: 19 8 31 40 48 37 12
Route #2: 44 53 3 22 13
Route #3: 35 15 26 45 21 33 9 38 11
Route #4: 20 49 36 1 17 10 29 23
Route #5: 30 25 47 41 34 6 16
Route #6: 52 46 51 24 42 14 2 27 32
Route #7: 43 4 28 7 39 50 5 18
Cost 1199.8071271979281